data/hard_8.dzn
num_nodi = 10;
ufficio_postale = 9;
dim_borsa = 19;
max_step = 40;
elenco_lettere = [18, 19, 3, 13, 5, 10, 16, 17, 0, 0];
distanze = [|0, 6, 6, 9, 7, 22, 11, 7, 17, 23
|23, 0, 25, 7, 12, 10, 6, 10, 11, 15
|10, 6, 0, 9, 11, 21, 20, 6, 7, 22
|4, 5, 13, 0, 13, 5, 24, 17, 1, 13
|25, 2, 4, 10, 0, 3, 19, 20, 21, 4
|14, 5, 21, 10, 19, 0, 13, 23, 2, 19
|20, 4, 13, 9, 5, 9, 0, 25, 18, 12
|3, 5, 6, 16, 2, 21, 24, 0, 20, 22
|22, 14, 4, 2, 21, 1, 7, 4, 0, 18
|12, 2, 10, 16, 9, 12, 4, 12, 7, 0
|];
