data/hard_8.lp
node(1..10).

ufficio_postale(9).

dim_borsa(19).

time(1..40).

lettere(1,18).
lettere(2,19).
lettere(3,3).
lettere(4,13).
lettere(5,5).
lettere(6,10).
lettere(7,16).
lettere(8,17).
lettere(9,0).
lettere(10,0).

costo_arco(1, 1, 0).
costo_arco(1, 2, 6).
costo_arco(1, 3, 6).
costo_arco(1, 4, 9).
costo_arco(1, 5, 7).
costo_arco(1, 6, 22).
costo_arco(1, 7, 11).
costo_arco(1, 8, 7).
costo_arco(1, 9, 17).
costo_arco(1, 10, 23).

costo_arco(2, 1, 23).
costo_arco(2, 2, 0).
costo_arco(2, 3, 25).
costo_arco(2, 4, 7).
costo_arco(2, 5, 12).
costo_arco(2, 6, 10).
costo_arco(2, 7, 6).
costo_arco(2, 8, 10).
costo_arco(2, 9, 11).
costo_arco(2, 10, 15).

costo_arco(3, 1, 10).
costo_arco(3, 2, 6).
costo_arco(3, 3, 0).
costo_arco(3, 4, 9).
costo_arco(3, 5, 11).
costo_arco(3, 6, 21).
costo_arco(3, 7, 20).
costo_arco(3, 8, 6).
costo_arco(3, 9, 7).
costo_arco(3, 10, 22).

costo_arco(4, 1, 4).
costo_arco(4, 2, 5).
costo_arco(4, 3, 13).
costo_arco(4, 4, 0).
costo_arco(4, 5, 13).
costo_arco(4, 6, 5).
costo_arco(4, 7, 24).
costo_arco(4, 8, 17).
costo_arco(4, 9, 1).
costo_arco(4, 10, 13).

costo_arco(5, 1, 25).
costo_arco(5, 2, 2).
costo_arco(5, 3, 4).
costo_arco(5, 4, 10).
costo_arco(5, 5, 0).
costo_arco(5, 6, 3).
costo_arco(5, 7, 19).
costo_arco(5, 8, 20).
costo_arco(5, 9, 21).
costo_arco(5, 10, 4).

costo_arco(6, 1, 14).
costo_arco(6, 2, 5).
costo_arco(6, 3, 21).
costo_arco(6, 4, 10).
costo_arco(6, 5, 19).
costo_arco(6, 6, 0).
costo_arco(6, 7, 13).
costo_arco(6, 8, 23).
costo_arco(6, 9, 2).
costo_arco(6, 10, 19).

costo_arco(7, 1, 20).
costo_arco(7, 2, 4).
costo_arco(7, 3, 13).
costo_arco(7, 4, 9).
costo_arco(7, 5, 5).
costo_arco(7, 6, 9).
costo_arco(7, 7, 0).
costo_arco(7, 8, 25).
costo_arco(7, 9, 18).
costo_arco(7, 10, 12).

costo_arco(8, 1, 3).
costo_arco(8, 2, 5).
costo_arco(8, 3, 6).
costo_arco(8, 4, 16).
costo_arco(8, 5, 2).
costo_arco(8, 6, 21).
costo_arco(8, 7, 24).
costo_arco(8, 8, 0).
costo_arco(8, 9, 20).
costo_arco(8, 10, 22).

costo_arco(9, 1, 22).
costo_arco(9, 2, 14).
costo_arco(9, 3, 4).
costo_arco(9, 4, 2).
costo_arco(9, 5, 21).
costo_arco(9, 6, 1).
costo_arco(9, 7, 7).
costo_arco(9, 8, 4).
costo_arco(9, 9, 0).
costo_arco(9, 10, 18).

costo_arco(10, 1, 12).
costo_arco(10, 2, 2).
costo_arco(10, 3, 10).
costo_arco(10, 4, 16).
costo_arco(10, 5, 9).
costo_arco(10, 6, 12).
costo_arco(10, 7, 4).
costo_arco(10, 8, 12).
costo_arco(10, 9, 7).
costo_arco(10, 10, 0).

